17336 16840 16021 15822 15293 15024 14716 14206 13866 13590 13208 12859 12762 12405 12163 11919 11424 11362 11170 10975 10810 10540 10316 10216 10120 9821 9732 9455 9373 9200 8984 8869 8688 8523 8405 8228 8074 7862 7697 7640 7529 7482 7394 7308 7197 7130 7040 6982 6937 6872 6793 6699 6651 6548 6502 6408 6331 6239 6162 6087 6039 5960 5936 5875 5845 5817 5772 5726 5675 5625 5578 5533 5501 5446 5419 5361 5308 5255 5238 5214 5175 5126 5089 5067 5029 4996 4970 4942 4893 4851 4817 4789 4761 4742 4723 4708 4666 4646 4634 4609 4592 4574 4569 4549 4486 4472 4454 4436 4421 4412 4385 4374 4364 4339 4316 4294 4268 4244 4239 4227 4211 4189 4181 4181 4165 4158 4148 4132 4118 4106 4093 4081 4081 4069 4051 4033 4031 4018 4005 3987 3982 3969 3939 3937 3919 3908 3893 3880 3860 3850 3832 3818 3808 3782 3755 3735 3725 3715 3705 3686 3686 3666 3666 3660 3652 3647 3640 3640 3620 3619 3614 3599 3599 3596 3587 3587 3580 3574 3562 3555 3547 3536 3533 3533 3529 3526 3519 3501 3501 3492 3492 3487 3487 3483 3478 3467 3467 3455 3449 3442 3436 3432 3422 3412 3402 3398 3392 3383 3375 3369 3362 3356 3355 3349 3345 3332 3330 3329 3323 3322 3315 3313 3309 3306 3304 3302 3302 3302 3301 3301 3301 3301 3298 3298 3298 3289 3283 3280 3280 3271 3266 3257 3257 3253 3252 3252 3242 3237 3236 3231 3211 3211 3209 3199 3198 3192 3186 3186 3179 3168 3168 3168 3167 3166 3166 3161 3161 3161 3155 3155 3155 3155 3155 3153 3153 3153 3153 3153 3153 3153 3153 3153 3153 3153 3153 3145 3145 3145 3145 3145 3145 3145 3145 3145 3145 3145 3145 3145 3145 3145 3145 3145 3145 3145 3145 3145 3145 3145 3145 3145 3145 3145 3145 3145 3145 3145 3145 3145 3145 3145 3145 3145 3145 3145 3145 3145 3145 3145 3145 3145 3145 3145 3145 3145 3145 3145 3145 3145 3145 3145 3145 3145 3145 3145 3145 3145 3145 3145 3145 3145 3145 3145 3145 3145 3145 3145 3145 3145 3145 3145 3145 3145 3145 3145 3145 3145 3145 3145 3145 3145 3145 3145 3145 3145 3145 3145 3145 3145 3145 3145 3145 3145 3145 3145 3145 3145 3145 3145 3145 3145 3145 3145 3145 3145 3145 3145 3145 3145 3145 3145 3145 3145 3145 3145 3145 3145 3145 3145 3145 3145 3145 3145 3145 3145 3145 3145 3145 3145 3145 3145 3145 3145 3145 3145 3145 3145 3145 3145 3145 3145 3145 3145 3145 3145 3145 3145 3145 3145 3145 3145 3145 3145 3145 3145 3145 3145 3145 3145 3145 3145 3145 3145 3145 3145 3145 3145 3145 3145 3145 3145 3145 3145 3145 3145 3145 3145 3145 3145 3145 3145 3145 3145 3145 3145 3145 3145 3145 3145 3145 3145 3145 3145 3145 3145 3145 3145 3145 3145 3145 3145 3145 3145 3145 3145 3145 3145 3145 3145 3145 3145 3145 3145 3145 3145 3145 3145 3145 3145 3145 3145 3145 3145 3145 3145 3145 3145 3145 3145 3145 3145 3145 3145 3145 3145 3145 3145 3145 3145 3145 3145 3145 3145 3145 3145 3145 3145 3145 3145 3145 3145 3145 3145 3145 3145 3145 3145 3145 3145 3145 3145 3145 3145 3145 3145 3145 3145 3145 3145 3145 3145 3145 3145 3145 3145 3145 3145 3145 3145 3145 3145 3145 3145 3145 3145 3145 3145 3145 3145 3145 3145 3145 3145 3145 3145 3145 3145 3145 3145 3145 3145 3145 3145 3145 3145 3145 3145 3145 3145 3145 3145 3145 3145 3145 3145 3145 3145 3145 3145 3145 3145 3145 3145 3145 3145 3145 3145 3145 3145 3145 3145 3145 3145 3145 3145 3145 3145 3145 3145 3145 3145 3145 3145 3145 3145 3145 3145 3145 3145 3145 3145 3145 3145 3145 3145 3145 3145 3145 3145 3145 3145 3145 3145 3145 3145 3145 3145 3145 3145 3145 3145 3145 3145 3145 3145 3145 3145 3145 3145 3145 3145 3145 3145 3145 3145 3145 3145 3145 3145 3145 3145 3145 3145 3145 3145 3145 3145 3145 3145 3145 3145 3145 3145 3145 3145 3145 3145 3145 3145 3145 3145 3145 3145 3145 3145 3145 3145 3145 3145 3145 3145 3145 3145 3145 3145 3145 3145 3145 3145 3145 3145 3145 3145 3145 3145 3145 3145 3145 3145 3145 3145 3145 3145 3145 3145 3145 3145 3145 3145 3145 3145 3145 3145 3145 3145 3145 3145 3145 3145 3145 3145 3145 3145 3145 3145 3145 3145 3145 3145 3145 3145 3145 3145 3145 3145 3145 3145 3145 3145 3145 3145 3145 3145 3145 3145 3145 3145 3145 3145 3145 3145 3145 3145 3145 3145 3145 3145 3145 3145 3145 3145 3145 3145 3145 3145 3145 3145 3145 3145 3145 3145 3145 3145 3145 3145 3145 3145 3145 3145 3145 3145 3145 3145 3145 3145 3145 3145 3145 3145 3145 3145 3145 3145 3145 3145 3145 3145 3145 3145 3145 3145 3145 3145 3145 3145 3145 3145 3145 3145 3145 3145 3145 3145 3145 3145 3145 3145 3145 3145 3145 3145 3145 3145 3145 3145 3145 3145 3145 3145 3145 3145 3145 3145 3145 3145 3145 3145 3145 3145 3145 3145 3145 3145 3145 3145 3145 3145 3145 3145 3145 3145 3145 3145 3145 3145 3145 3145 3145 3145 3145 3145 3145 3145 3145 3145 3145 3145 3145 3145 3145 3145 3145 3145 3145 3145 3145 3145 3145 3145 3145 3145 3145 3145 3145 3145 3145 3145 3145 3145 3145 3145 3145 3145 3145 3145 3145 3145 3145 3145 3145 3145 3145 3145 3145 3145 3145 3145 3145 3145 3145 3145 3145 3145 3145 3145 3145 3145 3145 3145 3145 3145 3145 3145 3145 3145 3145 3145 3145 3145 3145 3145 3145 3145 3145 3145 3145 3145 3145 3145 3145 3145 3145 3145 3145 3145 3145 3145 3145 3145 3145 3145 3145 3145 3145 3145 3145 3145 3145 3145 3145 3145 3145 3145 3145 3145 3145 3145 3145 3145 3145 3145 3145 3145 3145 3145 3145 3145 3145 3145 3145 3145 3145 3145 3145 3145 3145 3145 3145 3145 3145 3145 3145 3145 3145 3145 3145 3145 3145 3145 3145 3145 3145 3145 3145 3145 3145 3145 3145 3145 3145 3145 3145 3145 3145 3145 3145 3145 3145 3145 3145 3145 3145 3145 3145 3145 3145 3145 3145 3145 3145 3145 3145 3145 3145 3145 3145 3145 3145 3145 3145 3145 3145 3145 3145 3145 3145 3145 3145 3145 3145 3145 3145 3145 3145 3145 3145 3145 3145 3145 3145 3145 3145 3145 3145 3145 3145 3145 3145 3145 3145 3145 3145 3145 3145 3145 3145 3145 3145 3145 3145 3145 3145 3145 3145 3145 3145 3145 3145 3145 3145 3145 3145 3145 3145 3145 3145 3145 3145 3145 3145 3145 3145 3145 3145 3145 3145 3145 3145 3145 3145 3145 3145 3145 3145 3145 3145 3145 3145 3145 3145 3145 3145 3145 3145 3145 3145 3145 3145 3145 3145 3145 3145 3145 3145 3145 3145 3145 3145 3145 3145 3145 3145 3145 3145 3145 3145 3145 3145 3145 3145 3145 3145 3145 3145 3145 3145 3145 3145 3145 3145 3145 3145 3145 3145 3145 3145 3145 3145 3145 3145 3145 3145 3145 3145 3145 3145 3145 3145 3145 3145 3145 3145 3145 3145 3145 3145 3145 3145 3145 3145 3145 3145 3145 3145 3145 3145 3145 3145 3145 3145 3145 3145 3145 3145 3145 3145 3145 3145 3145 3145 3145 3145 3145 3145 3145 3145 3145 3145 3145 3145 3145 3145 3145 3145 3145 3145 3145 3145 3145 3145 3145 3145 3145 3145 3145 3145 3145 3145 3145 3145 3145 3145 3145 3145 3145 3145 3145 3145 3145 3145 3145 3145 3145 3145 3145 3145 3145 3145 3145 3145 3145 3145 3145 3145 3145 3145 3145 3145 3145 3145 3145 3145 3145 3145 3145 3145 3145 3145 3145 3145 3145 3145 3145 3145 3145 3145 3145 3145 3145 3145 3145 3145 3145 3145 3145 3145 3145 3145 3145 3145 3145 3145 3145 3145 3145 3145 3145 3145 3145 3145 3145 3145 3145 3145 3145 3145 3145 3145 3145 3145 3145 3145 3145 3145 3145 3145 3145 3145 3145 3145 3145 3145 3145 3145 3145 3145 3145 3145 3145 3145 3145 3145 3145 3145 3145 3145 3145 3145 3145 3145 3145 3145 3145 3145 3145 3145 3145 3145 3145 3145 3145 3145 3145 3145 3145 3145 3145 3145 3145 3145 3145 3145 3145 3145 3145 3145 3145 3145 3145 3145 3145 3145 3145 3145 3145 3145 3145 3145 3145 3145 3145 3145 3145 3145 3145 3145 3145 3145 3145 3145 3145 3145 3145 3145 3145 3145 3145 3145 3145 3145 3145 3145 3145 3145 3145 3145 3145 3145 3145 3145 3145 3145 3145 3145 3145 3145 3145 3145 3145 3145 3145 3145 3145 3145 3145 3145 3145 3145 3145 3145 3145 3145 3145 3145 3145 3145 3145 3145 3145 3145 3145 3145 3145 3145 3145 3145 3145 3145 3145 3145 3145 3145 3145 3145 3145 3145 3145 3145 3145 3145 3145 3145 3145 3145 3145 3145 3145 3145 3145 3145 3145 3145 3145 3145 3145 3145 3145 3145 3145 3145 3145 3145 3145 3145 3145 3145 3145 3145 3145 3145 3145 3145 3145 3145 3145 3145 3145 3145 3145 3145 3145 3145 3145 3145 3145 3145 3145 3145 3145 3145 3145 3145 3145 3145 3145 3145 3145 3145 3145 3145 3145 3145 3145 3145 3145 3145 3145 3145 3145 3145 3145 3145 3145 3145 3145 3145 3145 3145 3145 3145 3145 3145 3145 3145 3145 3145 3145 3145 3145 3145 3145 3145 3145 3145 3145 3145 3145 3145 3145 3145 3145 3145 3145 3145 3145 3145 3145 3145 3145 3145 3145 3145 3145 3145 3145 3145 3145 3145 3145 3145 3145 3145 3145 3145 3145 3145 3145 3145 3145 3145 3145 3145 3145 3145 3145 3145 3145 3145 3145 3145 3145 3145 3145 3145 3145 3145 3145 3145 3145 3145 3145 3145 3145 3145 3145 3145 3145 3145 3145 3145 3145 3145 3145 3145 3145 3145 3145 3145 3145 3145 3145 3145 3145 3145 3145 3145 3145 3145 3145 3145 3145 3145 3145 3145 3145 3145 3145 3145 3145 3145 3145 3145 3145 3145 3145 3145 3145 3145 3145 3145 3145 3145 3145 3145 3145 3145 3145 3145 3145 3145 3145 3145 3145 3145 3145 3145 3145 3145 3145 3145 3145 3145 3145 3145 3145 3145 3145 3145 3145 3145 3145 3145 3145 3145 3145 3145 3145 3145 3145 3145 3145 3145 3145 3145 3145 3145 3145 3145 3145 3145 3145 3145 3145 3145 3145 3145 3145 3145 3145 3145 3145 3145 3145 3145 3145 3145 3145 3145 3145 3145 3145 3145 3145 3145 3145 3145 3145 3145 3145 3145 3145 3145 3145 3145 3145 3145 3145 3145 3145 3145 3145 3145 3145 3145 3145 3145 3145 3145 3145 3145 3145 3145 3145 3145 3145 3145 3145 3145 3145 3145 3145 3145 3145 3145 3145 3145 3145 3145 3145 3145 3145 3145 3145 3145 3145 3145 3145 3145 3145 3145 3145 3145 3145 3145 3145 3145 3145 3145 3145 3145 3145 3145 3145 3145 3145 3145 3145 3145 3145 3145 3145 3145 3145 3145 3145 3145 3145 3145 3145 3145 3145 3145 3145 3145 3145 3145 3145 3145 3145 3145 3145 3145 3145 3145 3145 3145 3145 3145 3145 3145 3145 3145 3145 3145 3145 3145 3145 3145 3145 3145 3145 3145 3145 3145 3145 3145 3145 3145 3145 3145 3145 3145 3145 3145 3145 3145 3145 3145 3145 3145 3145 3145 3145 3145 3145 3145 3145 3145 3145 3145 3145 3145 3145 3145 3145 3145 3145 3145 3145 3145 3145 3145 3145 3145 3145 3145 3145 3145 3145 3145 3145 3145 3145 3145 3145 3145 3145 3145 3145 3145 3143 3143 3142 3141 3132 3132 3131 3130 3130 3117 3117 3117 3117 3115 3115 3114 3114 3112 3112 3112 3112 3094 3094 3094 3093 3092 3069 3069 3069 3069 3058 3058 3058 3058 3058 3058 3058 3058 3058 3058 3058 3058 3058 3058 3058 3058 3058 3058 3044 3044 3044 
19070 18115 17488 16965 16482 16004 15638 15259 14861 14482 14110 13778 13486 13206 12940 12718 12462 12191 11895 11581 11347 11174 10972 10774 10571 10385 10213 10038 9839 9658 9479 9306 9124 8935 8761 8594 8440 8286 8145 8002 7851 7739 7633 7536 7445 7349 7256 7169 7093 7025 6964 6901 6829 6744 6653 6568 6494 6417 6331 6244 6168 6095 6038 5984 5936 5902 5856 5800 5761 5722 5676 5630 5585 5540 5495 5449 5405 5364 5322 5277 5241 5211 5180 5144 5105 5067 5039 5008 4975 4941 4904 4862 4822 4791 4765 4745 4727 4706 4683 4656 4629 4610 4599 4589 4572 4558 4531 4476 4456 4442 4424 4409 4394 4378 4359 4338 4316 4291 4268 4252 4242 4226 4223 4214 4197 4185 4177 4161 4147 4135 4119 4109 4096 4091 4083 4075 4057 4045 4035 4023 4011 4001 3986 3973 3953 3936 3926 3910 3891 3879 3863 3852 3841 3824 3805 3785 3763 3733 3725 3721 3708 3695 3685 3679 3665 3662 3657 3650 3643 3638 3628 3618 3618 3613 3606 3598 3594 3586 3578 3572 3565 3555 3547 3543 3535 3532 3531 3525 3520 3517 3500 3491 3491 3490 3486 3486 3482 3478 3470 3458 3446 3445 3438 3430 3419 3409 3408 3399 3391 3386 3374 3368 3364 3358 3354 3349 3346 3339 3331 3330 3327 3322 3318 3312 3308 3308 3303 3302 3301 3301 3301 3301 3300 3300 3300 3299 3297 3296 3294 3286 3282 3276 3265 3262 3258 3256 3252 3249 3246 3243 3238 3234 3233 3225 3210 3206 3201 3198 3196 3187 3179 3172 3167 3167 3167 3167 3166 3165 3160 3160 3160 3156 3155 3154 3154 3154 3154 3153 3153 3153 3153 3153 3153 3153 3153 3152 3152 3152 3145 3145 3145 3145 3145 3145 3145 3145 3145 3145 3145 3145 3145 3145 3145 3145 3145 3145 3145 3145 3145 3145 3145 3145 3145 3145 3145 3145 3145 3145 3145 3145 3145 3145 3145 3145 3145 3145 3145 3145 3145 3145 3145 3145 3145 3145 3145 3145 3145 3145 3145 3145 3145 3145 3145 3145 3145 3145 3145 3145 3145 3145 3145 3145 3145 3145 3145 3145 3145 3145 3145 3145 3145 3145 3145 3145 3145 3145 3145 3145 3145 3145 3145 3145 3145 3145 3145 3145 3145 3145 3145 3145 3145 3145 3145 3145 3145 3145 3145 3145 3145 3145 3145 3145 3145 3145 3145 3145 3145 3145 3145 3145 3145 3145 3145 3145 3145 3145 3145 3145 3145 3145 3145 3145 3145 3145 3145 3145 3145 3145 3145 3145 3145 3145 3145 3145 3145 3145 3145 3145 3145 3145 3145 3145 3145 3145 3145 3145 3145 3145 3145 3145 3145 3145 3145 3145 3145 3145 3145 3145 3145 3145 3145 3145 3145 3145 3145 3145 3145 3145 3145 3145 3145 3145 3145 3145 3145 3145 3145 3145 3145 3145 3145 3145 3145 3145 3145 3145 3145 3145 3145 3145 3145 3145 3145 3145 3145 3145 3145 3145 3145 3145 3145 3145 3145 3145 3145 3145 3145 3145 3145 3145 3145 3145 3145 3145 3145 3145 3145 3145 3145 3145 3145 3145 3145 3145 3145 3145 3145 3145 3145 3145 3145 3145 3145 3145 3145 3145 3145 3145 3145 3145 3145 3145 3145 3145 3145 3145 3145 3145 3145 3145 3145 3145 3145 3145 3145 3145 3145 3145 3145 3145 3145 3145 3145 3145 3145 3145 3145 3145 3145 3145 3145 3145 3145 3145 3145 3145 3145 3145 3145 3145 3145 3145 3145 3145 3145 3145 3145 3145 3145 3145 3145 3145 3145 3145 3145 3145 3145 3145 3145 3145 3145 3145 3145 3145 3145 3145 3145 3145 3145 3145 3145 3145 3145 3145 3145 3145 3145 3145 3145 3145 3145 3145 3145 3145 3145 3145 3145 3145 3145 3145 3145 3145 3145 3145 3145 3145 3145 3145 3145 3145 3145 3145 3145 3145 3145 3145 3145 3145 3145 3145 3145 3145 3145 3145 3145 3145 3145 3145 3145 3145 3145 3145 3145 3145 3145 3145 3145 3145 3145 3145 3145 3145 3145 3145 3145 3145 3145 3145 3145 3145 3145 3145 3145 3145 3145 3145 3145 3145 3145 3145 3145 3145 3145 3145 3145 3145 3145 3145 3145 3145 3145 3145 3145 3145 3145 3145 3145 3145 3145 3145 3145 3145 3145 3145 3145 3145 3145 3145 3145 3145 3145 3145 3145 3145 3145 3145 3145 3145 3145 3145 3145 3145 3145 3145 3145 3145 3145 3145 3145 3145 3145 3145 3145 3145 3145 3145 3145 3145 3145 3145 3145 3145 3145 3145 3145 3145 3145 3145 3145 3145 3145 3145 3145 3145 3145 3145 3145 3145 3145 3145 3145 3145 3145 3145 3145 3145 3145 3145 3145 3145 3145 3145 3145 3145 3145 3145 3145 3145 3145 3145 3145 3145 3145 3145 3145 3145 3145 3145 3145 3145 3145 3145 3145 3145 3145 3145 3145 3145 3145 3145 3145 3145 3145 3145 3145 3145 3145 3145 3145 3145 3145 3145 3145 3145 3145 3145 3145 3145 3145 3145 3145 3145 3145 3145 3145 3145 3145 3145 3145 3145 3145 3145 3145 3145 3145 3145 3145 3145 3145 3145 3145 3145 3145 3145 3145 3145 3145 3145 3145 3145 3145 3145 3145 3145 3145 3145 3145 3145 3145 3145 3145 3145 3145 3145 3145 3145 3145 3145 3145 3145 3145 3145 3145 3145 3145 3145 3145 3145 3145 3145 3145 3145 3145 3145 3145 3145 3145 3145 3145 3145 3145 3145 3145 3145 3145 3145 3145 3145 3145 3145 3145 3145 3145 3145 3145 3145 3145 3145 3145 3145 3145 3145 3145 3145 3145 3145 3145 3145 3145 3145 3145 3145 3145 3145 3145 3145 3145 3145 3145 3145 3145 3145 3145 3145 3145 3145 3145 3145 3145 3145 3145 3145 3145 3145 3145 3145 3145 3145 3145 3145 3145 3145 3145 3145 3145 3145 3145 3145 3145 3145 3145 3145 3145 3145 3145 3145 3145 3145 3145 3145 3145 3145 3145 3145 3145 3145 3145 3145 3145 3145 3145 3145 3145 3145 3145 3145 3145 3145 3145 3145 3145 3145 3145 3145 3145 3145 3145 3145 3145 3145 3145 3145 3145 3145 3145 3145 3145 3145 3145 3145 3145 3145 3145 3145 3145 3145 3145 3145 3145 3145 3145 3145 3145 3145 3145 3145 3145 3145 3145 3145 3145 3145 3145 3145 3145 3145 3145 3145 3145 3145 3145 3145 3145 3145 3145 3145 3145 3145 3145 3145 3145 3145 3145 3145 3145 3145 3145 3145 3145 3145 3145 3145 3145 3145 3145 3145 3145 3145 3145 3145 3145 3145 3145 3145 3145 3145 3145 3145 3145 3145 3145 3145 3145 3145 3145 3145 3145 3145 3145 3145 3145 3145 3145 3145 3145 3145 3145 3145 3145 3145 3145 3145 3145 3145 3145 3145 3145 3145 3145 3145 3145 3145 3145 3145 3145 3145 3145 3145 3145 3145 3145 3145 3145 3145 3145 3145 3145 3145 3145 3145 3145 3145 3145 3145 3145 3145 3145 3145 3145 3145 3145 3145 3145 3145 3145 3145 3145 3145 3145 3145 3145 3145 3145 3145 3145 3145 3145 3145 3145 3145 3145 3145 3145 3145 3145 3145 3145 3145 3145 3145 3145 3145 3145 3145 3145 3145 3145 3145 3145 3145 3145 3145 3145 3145 3145 3145 3145 3145 3145 3145 3145 3145 3145 3145 3145 3145 3145 3145 3145 3145 3145 3145 3145 3145 3145 3145 3145 3145 3145 3145 3145 3145 3145 3145 3145 3145 3145 3145 3145 3145 3145 3145 3145 3145 3145 3145 3145 3145 3145 3145 3145 3145 3145 3145 3145 3145 3145 3145 3145 3145 3145 3145 3145 3145 3145 3145 3145 3145 3145 3145 3145 3145 3145 3145 3145 3145 3145 3145 3145 3145 3145 3145 3145 3145 3145 3145 3145 3145 3145 3145 3145 3145 3145 3145 3145 3145 3145 3145 3145 3145 3145 3145 3145 3145 3145 3145 3145 3145 3145 3145 3145 3145 3145 3145 3145 3145 3145 3145 3145 3145 3145 3145 3145 3145 3145 3145 3145 3145 3145 3145 3145 3145 3145 3145 3145 3145 3145 3145 3145 3145 3145 3145 3145 3145 3145 3145 3145 3145 3145 3145 3145 3145 3145 3145 3145 3145 3145 3145 3145 3145 3145 3145 3145 3145 3145 3145 3145 3145 3145 3145 3145 3145 3145 3145 3145 3145 3145 3145 3145 3145 3145 3145 3145 3145 3145 3145 3145 3145 3145 3145 3145 3145 3145 3145 3145 3145 3145 3145 3145 3145 3145 3145 3145 3145 3145 3145 3145 3145 3145 3145 3145 3145 3145 3145 3145 3145 3145 3145 3145 3145 3145 3145 3145 3145 3145 3145 3145 3145 3145 3145 3145 3145 3145 3145 3145 3145 3145 3145 3145 3145 3145 3145 3145 3145 3145 3145 3145 3145 3145 3145 3145 3145 3145 3145 3145 3145 3145 3145 3145 3145 3145 3145 3145 3145 3145 3145 3145 3145 3145 3145 3145 3145 3145 3145 3145 3145 3145 3145 3145 3145 3145 3145 3145 3145 3145 3145 3145 3145 3145 3145 3145 3145 3145 3145 3145 3145 3145 3145 3145 3145 3145 3145 3145 3145 3145 3145 3145 3145 3145 3145 3145 3145 3145 3145 3145 3145 3145 3145 3145 3145 3145 3145 3145 3145 3145 3145 3145 3145 3145 3145 3145 3145 3145 3145 3145 3145 3145 3145 3145 3145 3145 3145 3145 3145 3145 3145 3145 3145 3145 3145 3145 3145 3145 3145 3145 3145 3145 3145 3145 3145 3145 3145 3145 3145 3145 3145 3145 3145 3145 3145 3145 3145 3145 3145 3145 3145 3145 3145 3145 3145 3145 3145 3145 3145 3145 3145 3145 3145 3145 3145 3145 3145 3145 3145 3145 3145 3145 3145 3145 3145 3145 3145 3145 3145 3145 3145 3145 3145 3145 3145 3145 3145 3145 3145 3145 3145 3145 3145 3145 3145 3145 3145 3145 3145 3145 3145 3145 3145 3145 3145 3145 3145 3145 3145 3145 3145 3145 3145 3145 3145 3145 3145 3145 3145 3145 3145 3145 3145 3145 3145 3145 3145 3145 3145 3145 3145 3145 3145 3145 3145 3145 3145 3145 3145 3145 3145 3145 3145 3145 3145 3145 3145 3145 3145 3145 3145 3145 3145 3145 3145 3145 3145 3145 3145 3145 3145 3145 3145 3145 3145 3145 3145 3145 3145 3145 3145 3145 3145 3145 3145 3145 3145 3145 3145 3145 3145 3145 3145 3145 3145 3145 3145 3145 3145 3145 3145 3145 3145 3145 3145 3145 3145 3145 3145 3145 3145 3145 3145 3145 3145 3145 3145 3145 3145 3145 3145 3145 3145 3145 3145 3145 3145 3145 3145 3145 3145 3145 3145 3145 3145 3145 3145 3145 3145 3145 3145 3145 3145 3145 3145 3145 3145 3145 3145 3145 3145 3145 3145 3145 3145 3145 3145 3145 3145 3145 3145 3145 3145 3145 3145 3145 3145 3145 3145 3145 3145 3145 3145 3145 3145 3145 3145 3145 3145 3145 3145 3145 3145 3145 3145 3145 3145 3145 3145 3145 3145 3145 3145 3145 3145 3145 3145 3145 3145 3145 3145 3145 3145 3145 3145 3145 3145 3145 3145 3145 3145 3145 3145 3145 3145 3145 3145 3145 3145 3145 3145 3145 3145 3145 3145 3145 3145 3145 3145 3145 3145 3145 3145 3145 3145 3145 3145 3145 3145 3145 3145 3145 3145 3145 3145 3145 3145 3145 3145 3145 3145 3145 3145 3145 3145 3145 3145 3145 3145 3145 3145 3145 3145 3145 3145 3145 3145 3145 3145 3145 3145 3145 3145 3145 3145 3145 3145 3145 3145 3145 3145 3145 3145 3145 3145 3145 3145 3145 3145 3145 3145 3145 3145 3145 3145 3145 3145 3145 3145 3145 3145 3145 3145 3145 3145 3145 3145 3145 3145 3145 3145 3145 3145 3145 3145 3145 3145 3145 3145 3145 3145 3145 3145 3145 3145 3145 3145 3145 3145 3145 3145 3145 3145 3145 3145 3145 3145 3145 3145 3145 3145 3145 3145 3145 3145 3145 3145 3145 3145 3145 3145 3145 3145 3145 3144 3144 3144 3142 3142 3141 3140 3134 3131 3130 3129 3129 3121 3116 3116 3116 3114 3114 3113 3113 3113 3111 3111 3111 3106 3093 3092 3092 3090 3080 3068 3068 3068 3066 3058 3058 3058 3058 3058 3058 3058 3058 3058 3058 3058 3058 3058 3058 3057 3057 3057 